
nmachesperday = 4;
nmatchesperstadium = 4;
ndays = 7;
nteams = 8;
nstadiums = 7;

fixes=[| {},   {8},  {},    {}, {7,5},  {},  {}|
        {2}, {1,5},  {},    {},    {},  {},  {}|
        {7},    {}, {8},    {},    {},  {},  {}|
         {},    {},  {},    {},   {2}, {5}, {1}|
        {8},    {},  {},    {},    {}, {1},  {}|
         {},    {},  {}, {5,4},    {},  {},  {}|
       { 4},    {},  {},    {}, {1,3},  {},  {}|];
       
distancies = [|  0, 10, 20, 30, 40, 50, 60|  
                10,  0, 15, 25, 35, 45, 55|  
                20, 15,  0, 12, 22, 32, 42|  
                30, 25, 12,  0, 18, 28, 38|  
                40, 35, 22, 18,  0, 16, 26|  
                50, 45, 32, 28, 16,  0, 14|  
                60, 55, 42, 38, 26, 14,  0|];
    
    
tifosi = [10025,20770,2876,15009,7750,30380,3043,25001];
capacitats = [40000,35000,20000,25000,10000,18000,23000];
